<number of tasks>
30

<cycle time>
54

<task times>
1 8
2 7
3 19
4 10
5 2
6 6
7 14
8 10
9 1
10 4
11 14
12 15
13 5
14 12
15 9
16 10
17 2
18 10
19 18
20 16
21 21
22 14
23 16
24 7
25 17
26 9
27 25
28 7
29 14
30 2

<precedence relations>
1,4
1,5
2,11
2,12
3,16
3,17
4,7
5,6
6,7
7,8
8,9
9,26
10,24
12,13
13,14
14,15
14,20
15,22
16,20
17,18
18,19
20,21
20,24
21,22
22,23
23,27
24,25
25,26
26,27
27,28
27,29
29,30

<setup times forward>
1,4:3
1,5:3
1,10:1
1,11:1
1,14:3
1,15:1
1,16:3
1,17:3
1,18:3
1,19:1
1,20:1
1,21:1
1,22:2
1,23:2
1,24:1
1,25:1
2,4:3
2,5:3
2,6:3
2,7:1
2,8:2
2,9:2
2,10:1
2,11:1
2,16:3
2,17:3
2,18:3
2,19:1
3,4:3
3,5:3
3,6:3
3,7:1
3,8:2
3,9:2
3,10:1
3,11:1
3,14:3
3,15:1
3,16:3
3,17:3
4,2:3
4,3:3
4,7:4
4,10:4
4,11:2
4,12:3
4,13:3
4,15:2
4,19:4
4,20:4
4,21:2
4,22:5
4,23:5
4,24:2
4,25:2
5,2:3
5,3:3
5,10:4
5,11:2
5,12:3
5,13:3
5,15:2
5,19:4
5,20:4
5,21:2
5,22:5
5,23:5
5,24:2
5,25:2
6,2:3
6,3:3
6,7:4
6,10:4
6,11:2
6,12:3
6,13:3
6,15:2
6,19:4
6,20:4
6,21:2
6,22:5
6,23:5
6,24:2
6,25:2
7,2:1
7,3:1
7,8:1
7,11:2
7,12:1
7,13:1
7,14:4
7,15:2
7,16:4
7,17:4
7,18:4
7,21:2
7,22:1
7,23:1
7,24:2
7,25:2
8,2:2
8,3:2
8,10:1
8,11:3
8,12:2
8,13:2
8,14:5
8,15:3
8,16:5
8,17:5
8,18:5
8,19:1
8,20:1
8,21:3
8,24:3
8,25:3
9,2:2
9,3:2
9,10:1
9,11:3
9,12:2
9,13:2
9,14:5
9,15:3
9,16:5
9,17:5
9,18:5
9,19:1
9,20:1
9,21:3
9,24:3
9,25:3
10,1:1
10,2:1
10,3:1
10,4:4
10,5:4
10,6:4
10,8:1
10,9:1
10,11:2
10,12:1
10,13:1
10,14:4
10,15:2
10,16:4
10,17:4
10,18:4
10,21:2
10,22:1
10,23:1
10,24:2
11,1:1
11,3:1
11,4:2
11,5:2
11,6:2
11,7:2
11,8:3
11,9:3
11,10:2
11,12:1
11,13:1
11,14:2
11,16:2
11,17:2
11,18:2
11,19:2
11,20:2
11,22:3
11,23:3
11,26:3
11,27:1
11,28:1
11,29:1
11,30:1
12,4:3
12,5:3
12,6:3
12,7:1
12,8:2
12,9:2
12,10:1
12,11:1
12,16:3
12,17:3
12,18:3
12,19:1
13,4:3
13,5:3
13,6:3
13,7:1
13,8:2
13,9:2
13,10:1
13,11:1
13,14:3
13,16:3
13,17:3
13,18:3
13,19:1
14,1:3
14,3:3
14,7:4
14,8:5
14,9:5
14,10:4
14,11:2
14,15:2
14,19:4
14,20:4
15,1:1
15,3:1
15,4:2
15,5:2
15,6:2
15,7:2
15,8:3
15,9:3
15,10:2
15,16:2
15,17:2
15,18:2
15,19:2
15,20:2
15,22:3
15,26:3
16,1:3
16,2:3
16,7:4
16,8:5
16,9:5
16,10:4
16,11:2
16,12:3
16,13:3
16,15:2
16,19:4
16,20:4
17,1:3
17,2:3
17,7:4
17,8:5
17,9:5
17,10:4
17,11:2
17,12:3
17,13:3
17,15:2
17,20:4
17,21:2
17,22:5
17,23:5
17,24:2
17,25:2
17,26:5
17,27:3
17,28:3
17,29:3
17,30:3
18,1:3
18,2:3
18,7:4
18,8:5
18,9:5
18,10:4
18,11:2
18,12:3
18,13:3
18,15:2
18,19:4
18,20:4
18,21:2
18,22:5
18,23:5
18,24:2
18,25:2
18,26:5
18,27:3
18,28:3
18,29:3
18,30:3
19,1:1
19,2:1
19,4:4
19,5:4
19,6:4
19,8:1
19,9:1
19,11:2
19,12:1
19,13:1
19,14:4
19,15:2
19,16:4
19,21:2
19,22:1
19,23:1
19,24:2
19,25:2
19,26:1
19,27:1
19,28:1
19,29:1
19,30:1
20,1:1
20,4:4
20,5:4
20,6:4
20,8:1
20,9:1
20,11:2
20,15:2
20,17:4
20,18:4
20,21:2
20,24:2
21,1:1
21,4:2
21,5:2
21,6:2
21,7:2
21,8:3
21,9:3
21,10:2
21,17:2
21,18:2
21,19:2
21,22:3
21,26:3
22,1:2
22,4:5
22,5:5
22,6:5
22,7:1
22,10:1
22,11:3
22,17:5
22,18:5
22,19:1
22,24:3
22,25:3
23,1:2
23,4:5
23,5:5
23,6:5
23,7:1
23,10:1
23,11:3
23,17:5
23,18:5
23,19:1
23,24:3
23,25:3
23,27:2
24,1:1
24,4:2
24,5:2
24,6:2
24,7:2
24,8:3
24,9:3
24,17:2
24,18:2
24,19:2
24,22:3
24,23:3
25,1:1
25,4:2
25,5:2
25,6:2
25,7:2
25,8:3
25,9:3
25,17:2
25,18:2
25,19:2
25,22:3
25,23:3
25,26:3
26,11:3
26,15:3
26,17:5
26,18:5
26,19:1
26,21:3
26,27:2
27,11:1
27,17:3
27,18:3
27,19:1
28,11:1
28,17:3
28,18:3
28,19:1
29,11:1
29,17:3
29,18:3
29,19:1
30,11:1
30,17:3
30,18:3
30,19:1

<setup times backward>
1,10:1
1,19:1
1,20:1
1,22:2
1,23:2
2,7:1
2,8:2
2,9:2
2,10:1
2,19:1
3,7:1
3,8:2
3,9:2
3,10:1
4,1:3
4,2:3
4,3:3
4,10:4
4,11:2
4,12:3
4,13:3
4,15:2
4,19:4
4,20:4
4,21:2
4,22:5
4,23:5
4,24:2
4,25:2
5,1:3
5,2:3
5,3:3
5,10:4
5,11:2
5,12:3
5,13:3
5,15:2
5,19:4
5,20:4
5,21:2
5,22:5
5,23:5
5,24:2
5,25:2
6,1:3
6,2:3
6,3:3
6,10:4
6,11:2
6,12:3
6,13:3
6,15:2
6,19:4
6,20:4
6,21:2
6,22:5
6,23:5
6,24:2
6,25:2
7,22:1
7,23:1
10,8:1
10,9:1
10,22:1
10,23:1
11,1:1
11,2:1
11,3:1
11,7:2
11,8:3
11,9:3
11,10:2
11,12:1
11,13:1
11,19:2
11,20:2
11,22:3
11,23:3
11,26:3
11,27:1
11,28:1
11,29:1
11,30:1
12,7:1
12,8:2
12,9:2
12,10:1
12,19:1
13,7:1
13,8:2
13,9:2
13,10:1
13,19:1
14,1:3
14,2:3
14,3:3
14,7:4
14,8:5
14,9:5
14,10:4
14,11:2
14,12:3
14,13:3
14,19:4
15,1:1
15,2:1
15,3:1
15,7:2
15,8:3
15,9:3
15,10:2
15,12:1
15,13:1
15,19:2
15,20:2
15,26:3
16,1:3
16,2:3
16,3:3
16,7:4
16,8:5
16,9:5
16,10:4
16,11:2
16,12:3
16,13:3
16,15:2
16,19:4
17,1:3
17,2:3
17,3:3
17,7:4
17,8:5
17,9:5
17,10:4
17,11:2
17,12:3
17,13:3
17,15:2
17,20:4
17,21:2
17,22:5
17,23:5
17,24:2
17,25:2
17,26:5
17,27:3
17,28:3
17,29:3
17,30:3
18,1:3
18,2:3
18,3:3
18,7:4
18,8:5
18,9:5
18,10:4
18,11:2
18,12:3
18,13:3
18,15:2
18,20:4
18,21:2
18,22:5
18,23:5
18,24:2
18,25:2
18,26:5
18,27:3
18,28:3
18,29:3
18,30:3
19,8:1
19,9:1
19,22:1
19,23:1
19,26:1
20,8:1
20,9:1
21,1:1
21,2:1
21,3:1
21,7:2
21,8:3
21,9:3
21,10:2
21,12:1
21,13:1
21,19:2
21,20:2
21,26:3
24,1:1
24,2:1
24,3:1
24,7:2
24,8:3
24,9:3
24,10:2
24,12:1
24,13:1
24,19:2
24,20:2
24,22:3
24,23:3
25,1:1
25,2:1
25,3:1
25,7:2
25,8:3
25,9:3
25,10:2
25,12:1
25,13:1
25,19:2
25,20:2
25,22:3
25,23:3
27,7:1
27,8:2
27,9:2
27,10:1
27,19:1
27,20:1
27,22:2
27,23:2
27,26:2
28,7:1
28,8:2
28,9:2
28,10:1
28,19:1
28,20:1
28,22:2
28,23:2
28,26:2
29,7:1
29,8:2
29,9:2
29,10:1
29,19:1
29,20:1
29,22:2
29,23:2
29,26:2
30,7:1
30,8:2
30,9:2
30,10:1
30,19:1
30,20:1
30,22:2
30,23:2
30,26:2

<end>

<optimal SALBP-1 value>
7


<rand seed>
467321153

